c description: Random 3-CNF over 16 variables and 64 clauses
p cnf 16 64
-2 10 14 0
-6 14 -16 0
-3 -6 -13 0
-1 -9 -15 0
3 -7 10 0
-3 7 8 0
-1 2 -13 0
-11 -13 -16 0
4 9 14 0
2 3 -12 0
-3 -7 11 0
1 5 -6 0
-2 -3 5 0
-3 -8 -11 0
1 3 9 0
-2 -4 -15 0
-11 -12 -15 0
11 12 13 0
-1 -13 -14 0
-10 13 16 0
1 5 7 0
-3 13 -16 0
-11 -13 15 0
2 -10 14 0
4 7 9 0
1 9 10 0
5 -10 -16 0
7 11 -15 0
-9 11 14 0
2 -7 -9 0
4 -11 13 0
-3 -4 -9 0
13 -14 -15 0
-5 12 14 0
-9 10 -16 0
-1 -3 7 0
5 -6 9 0
10 -11 16 0
-4 5 14 0
4 8 -12 0
-3 9 10 0
-5 12 13 0
-5 6 -15 0
-2 8 -13 0
2 3 -16 0
-4 14 -15 0
-2 9 10 0
-10 11 -14 0
1 -9 13 0
-2 8 -12 0
4 9 11 0
-2 14 -15 0
8 -12 16 0
-5 -12 -13 0
3 5 -6 0
-4 6 7 0
2 7 9 0
-1 5 -15 0
-2 -8 -14 0
5 9 -13 0
-9 -10 14 0
-2 10 -16 0
-8 -10 -11 0
1 7 -9 0